NAME: test_data
TYPE: CVRP
DIMENSION:
EDGE_WEIGHT_TYPE: GEO
CAPACITY: 200
NODE_COORD_SECTION
1 45.5074 -73.5547
2 45.5071 -73.5876
3 45.5600 -73.5630
4 45.5045 -73.5561
5 45.4985 -73.5794
6 45.4919 -73.6169
7 45.5076 -73.5521
8 45.5063 -73.5487
9 45.5585 -73.5519
10 45.5048 -73.5772
11 45.5362 -73.6142 
DEMAND_SECTION
1 0
2 35
3 20
4 50
5 60
6 25
7 59
8 62
9 23
10 35
11 42
DEPOT_SECTION
1
-1
EOF
